\* Dreamteam *\
Maximize
OBJ: 21.060426712 x_0 + 61.2953109741 x_1 + 16.0271930695 x_10
 + 9.6214466095 x_11 + 46.4928512573 x_12 + 14.587761879 x_13
 + 3.30153536797 x_14 - 2.43748784065 x_15 + 100.16570282 x_16
 + 60.6816673279 x_17 + 47.7370376587 x_18 - 0.705786943436 x_19
 + 37.3096847534 x_2 - 1.27301335335 x_20 - 0.127969503403 x_21
 + 6.37962675095 x_3 + 10.8834514618 x_4 + 3.0072157383 x_5
 + 26.8649368286 x_6 + 72.9965896606 x_7 + 90.8261566162 x_8
 + 16.0271930695 x_9
Subject To
_C1: x_0 + x_1 + x_10 + x_12 >= 1
_C10: 9.5 x_0 + 9.5 x_1 + 8 x_10 + 9 x_11 + 10 x_12 + 9 x_13 + 8.5 x_14
 + 8 x_15 + 8.5 x_16 + 9.5 x_17 + 8.5 x_18 + 8.5 x_19 + 8 x_2 + 8 x_20
 + 8 x_21 + 8.5 x_3 + 9 x_4 + 9 x_5 + 8 x_6 + 9.5 x_7 + 8.5 x_8 + 8.5 x_9
 <= 100
_C11: x_0 + x_1 + x_10 + x_2 + x_3 + x_4 + x_5 + x_6 + x_7 + x_8 + x_9 <= 7
_C12: x_11 + x_12 + x_13 + x_14 + x_15 + x_16 + x_17 + x_18 + x_19 + x_20
 + x_21 <= 7
_C2: x_0 + x_1 + x_10 + x_12 <= 4
_C3: x_11 + x_13 + x_15 + x_2 + x_21 + x_3 + x_4 + x_5 >= 3
_C4: x_11 + x_13 + x_15 + x_2 + x_21 + x_3 + x_4 + x_5 <= 6
_C5: x_14 + x_16 + x_7 + x_8 >= 1
_C6: x_14 + x_16 + x_7 + x_8 <= 4
_C7: x_17 + x_18 + x_19 + x_20 + x_6 + x_9 >= 3
_C8: x_17 + x_18 + x_19 + x_20 + x_6 + x_9 <= 6
_C9: x_0 + x_1 + x_10 + x_11 + x_12 + x_13 + x_14 + x_15 + x_16 + x_17 + x_18
 + x_19 + x_2 + x_20 + x_21 + x_3 + x_4 + x_5 + x_6 + x_7 + x_8 + x_9 = 11
Binaries
x_0
x_1
x_10
x_11
x_12
x_13
x_14
x_15
x_16
x_17
x_18
x_19
x_2
x_20
x_21
x_3
x_4
x_5
x_6
x_7
x_8
x_9
End
